NAME: ETSP
COMMENT: Generated by write_TSPLIB (R package TSP)
TYPE: TSP
DIMENSION: 300
EDGE_WEIGHT_TYPE: EUC_2D
NODE_COORD_SECTION
1 4.694000e+00 1.918900e+01
2 4.694000e+00 5.594700e+01
3 4.694000e+00 7.432600e+01
4 4.694000e+00 9.270500e+01
5 4.694000e+00 1.110840e+02
6 4.694000e+00 1.478420e+02
7 4.694000e+00 1.846000e+02
8 4.694000e+00 2.029790e+02
9 1.000000e+01 4.675800e+01
10 1.000000e+01 6.513700e+01
11 1.000000e+01 8.351600e+01
12 1.000000e+01 1.018950e+02
13 1.000000e+01 1.202740e+02
14 1.000000e+01 1.386530e+02
15 1.000000e+01 1.570320e+02
16 1.000000e+01 1.754110e+02
17 1.000000e+01 1.937900e+02
18 1.000000e+01 2.121690e+02
19 1.530600e+01 1.918900e+01
20 1.530600e+01 3.756800e+01
21 1.530600e+01 5.594700e+01
22 1.530600e+01 7.432600e+01
23 1.530600e+01 9.270500e+01
24 1.530600e+01 1.110840e+02
25 1.530600e+01 1.294630e+02
26 1.530600e+01 1.478420e+02
27 1.530600e+01 1.662210e+02
28 1.530600e+01 1.846000e+02
29 2.061100e+01 2.837900e+01
30 2.061100e+01 1.018950e+02
31 2.061100e+01 1.202740e+02
32 2.061100e+01 1.386530e+02
33 2.061100e+01 1.570320e+02
34 2.061100e+01 1.754110e+02
35 2.061100e+01 1.937900e+02
36 2.061100e+01 2.121690e+02
37 2.591700e+01 5.594700e+01
38 2.591700e+01 9.270500e+01
39 2.591700e+01 1.110840e+02
40 2.591700e+01 1.294630e+02
41 2.591700e+01 1.478420e+02
42 2.591700e+01 2.029790e+02
43 3.122200e+01 1.000000e+01
44 3.122200e+01 2.837900e+01
45 3.122200e+01 4.675800e+01
46 3.122200e+01 8.351600e+01
47 3.122200e+01 1.202740e+02
48 3.122200e+01 1.386530e+02
49 3.122200e+01 1.754110e+02
50 3.122200e+01 1.937900e+02
51 3.652800e+01 1.918900e+01
52 3.652800e+01 3.756800e+01
53 3.652800e+01 7.432600e+01
54 3.652800e+01 9.270500e+01
55 3.652800e+01 1.110840e+02
56 3.652800e+01 1.294630e+02
57 3.652800e+01 1.478420e+02
58 4.183300e+01 1.000000e+01
59 4.183300e+01 2.837900e+01
60 4.183300e+01 6.513700e+01
61 4.183300e+01 8.351600e+01
62 4.183300e+01 1.018950e+02
63 4.183300e+01 1.202740e+02
64 4.183300e+01 1.386530e+02
65 4.183300e+01 1.754110e+02
66 4.183300e+01 1.937900e+02
67 4.713900e+01 1.918900e+01
68 4.713900e+01 3.756800e+01
69 4.713900e+01 5.594700e+01
70 4.713900e+01 7.432600e+01
71 4.713900e+01 9.270500e+01
72 4.713900e+01 1.662210e+02
73 4.713900e+01 1.846000e+02
74 4.713900e+01 2.029790e+02
75 5.244400e+01 1.000000e+01
76 5.244400e+01 2.837900e+01
77 5.244400e+01 4.675800e+01
78 5.244400e+01 6.513700e+01
79 5.244400e+01 1.018950e+02
80 5.244400e+01 1.386530e+02
81 5.244400e+01 1.754110e+02
82 5.775000e+01 7.432600e+01
83 5.775000e+01 9.270500e+01
84 5.775000e+01 1.662210e+02
85 5.775000e+01 1.846000e+02
86 5.775000e+01 2.029790e+02
87 6.305600e+01 1.000000e+01
88 6.305600e+01 2.837900e+01
89 6.305600e+01 8.351600e+01
90 6.305600e+01 1.202740e+02
91 6.305600e+01 1.386530e+02
92 6.305600e+01 1.570320e+02
93 6.305600e+01 1.754110e+02
94 6.305600e+01 1.937900e+02
95 6.836100e+01 1.918900e+01
96 6.836100e+01 1.110840e+02
97 6.836100e+01 1.294630e+02
98 6.836100e+01 1.662210e+02
99 6.836100e+01 1.846000e+02
100 6.836100e+01 2.029790e+02
101 7.366700e+01 2.837900e+01
102 7.366700e+01 6.513700e+01
103 7.366700e+01 8.351600e+01
104 7.366700e+01 1.570320e+02
105 7.366700e+01 1.754110e+02
106 7.366700e+01 2.121690e+02
107 7.897200e+01 1.918900e+01
108 7.897200e+01 5.594700e+01
109 7.897200e+01 7.432600e+01
110 7.897200e+01 9.270500e+01
111 7.897200e+01 1.294630e+02
112 7.897200e+01 1.478420e+02
113 7.897200e+01 1.662210e+02
114 7.897200e+01 1.846000e+02
115 8.427800e+01 1.000000e+01
116 8.427800e+01 2.837900e+01
117 8.427800e+01 4.675800e+01
118 8.427800e+01 6.513700e+01
119 8.427800e+01 1.018950e+02
120 8.427800e+01 1.570320e+02
121 8.427800e+01 2.121690e+02
122 8.958300e+01 3.756800e+01
123 8.958300e+01 5.594700e+01
124 8.958300e+01 7.432600e+01
125 8.958300e+01 9.270500e+01
126 8.958300e+01 1.110840e+02
127 8.958300e+01 1.294630e+02
128 8.958300e+01 1.478420e+02
129 8.958300e+01 1.846000e+02
130 8.958300e+01 2.029790e+02
131 9.488900e+01 1.000000e+01
132 9.488900e+01 2.837900e+01
133 9.488900e+01 4.675800e+01
134 9.488900e+01 6.513700e+01
135 9.488900e+01 8.351600e+01
136 9.488900e+01 1.018950e+02
137 9.488900e+01 1.202740e+02
138 9.488900e+01 1.386530e+02
139 9.488900e+01 1.570320e+02
140 9.488900e+01 1.754110e+02
141 9.488900e+01 1.937900e+02
142 1.001940e+02 1.918900e+01
143 1.001940e+02 3.756800e+01
144 1.001940e+02 5.594700e+01
145 1.001940e+02 7.432600e+01
146 1.001940e+02 9.270500e+01
147 1.001940e+02 1.110840e+02
148 1.001940e+02 1.478420e+02
149 1.001940e+02 1.662210e+02
150 1.001940e+02 1.846000e+02
151 1.001940e+02 2.029790e+02
152 1.055000e+02 1.000000e+01
153 1.055000e+02 4.675800e+01
154 1.055000e+02 8.351600e+01
155 1.055000e+02 1.202740e+02
156 1.055000e+02 1.386530e+02
157 1.055000e+02 1.570320e+02
158 1.055000e+02 1.754110e+02
159 1.055000e+02 1.937900e+02
160 1.055000e+02 2.121690e+02
161 1.108060e+02 1.918900e+01
162 1.108060e+02 3.756800e+01
163 1.108060e+02 5.594700e+01
164 1.108060e+02 7.432600e+01
165 1.108060e+02 9.270500e+01
166 1.108060e+02 1.110840e+02
167 1.108060e+02 1.294630e+02
168 1.108060e+02 1.478420e+02
169 1.108060e+02 1.662210e+02
170 1.108060e+02 1.846000e+02
171 1.161110e+02 1.000000e+01
172 1.161110e+02 2.837900e+01
173 1.161110e+02 4.675800e+01
174 1.161110e+02 6.513700e+01
175 1.161110e+02 8.351600e+01
176 1.161110e+02 1.018950e+02
177 1.161110e+02 1.202740e+02
178 1.161110e+02 1.386530e+02
179 1.161110e+02 1.570320e+02
180 1.161110e+02 1.937900e+02
181 1.161110e+02 2.121690e+02
182 1.214170e+02 1.918900e+01
183 1.214170e+02 3.756800e+01
184 1.214170e+02 5.594700e+01
185 1.214170e+02 7.432600e+01
186 1.214170e+02 9.270500e+01
187 1.214170e+02 1.478420e+02
188 1.214170e+02 1.662210e+02
189 1.214170e+02 1.846000e+02
190 1.214170e+02 2.029790e+02
191 1.267220e+02 1.000000e+01
192 1.267220e+02 2.837900e+01
193 1.267220e+02 4.675800e+01
194 1.267220e+02 6.513700e+01
195 1.267220e+02 8.351600e+01
196 1.267220e+02 1.202740e+02
197 1.267220e+02 1.386530e+02
198 1.267220e+02 1.570320e+02
199 1.267220e+02 1.754110e+02
200 1.267220e+02 1.937900e+02
201 1.267220e+02 2.121690e+02
202 1.320280e+02 3.756800e+01
203 1.320280e+02 5.594700e+01
204 1.320280e+02 9.270500e+01
205 1.320280e+02 1.110840e+02
206 1.320280e+02 1.294630e+02
207 1.320280e+02 1.662210e+02
208 1.320280e+02 1.846000e+02
209 1.320280e+02 2.029790e+02
210 1.373330e+02 1.000000e+01
211 1.373330e+02 2.837900e+01
212 1.373330e+02 4.675800e+01
213 1.373330e+02 6.513700e+01
214 1.373330e+02 1.018950e+02
215 1.373330e+02 1.386530e+02
216 1.373330e+02 1.570320e+02
217 1.373330e+02 2.121690e+02
218 1.426390e+02 1.918900e+01
219 1.426390e+02 3.756800e+01
220 1.426390e+02 9.270500e+01
221 1.426390e+02 1.294630e+02
222 1.426390e+02 1.478420e+02
223 1.426390e+02 1.662210e+02
224 1.426390e+02 1.846000e+02
225 1.426390e+02 2.029790e+02
226 1.479440e+02 6.513700e+01
227 1.479440e+02 8.351600e+01
228 1.479440e+02 1.018950e+02
229 1.479440e+02 1.202740e+02
230 1.479440e+02 1.386530e+02
231 1.479440e+02 1.570320e+02
232 1.479440e+02 1.754110e+02
233 1.479440e+02 1.937900e+02
234 1.479440e+02 2.121690e+02
235 1.532500e+02 1.918900e+01
236 1.532500e+02 5.594700e+01
237 1.532500e+02 1.110840e+02
238 1.532500e+02 1.294630e+02
239 1.532500e+02 1.478420e+02
240 1.532500e+02 1.662210e+02
241 1.532500e+02 1.846000e+02
242 1.532500e+02 2.029790e+02
243 1.585560e+02 2.837900e+01
244 1.585560e+02 4.675800e+01
245 1.585560e+02 8.351600e+01
246 1.585560e+02 1.018950e+02
247 1.585560e+02 1.386530e+02
248 1.585560e+02 1.937900e+02
249 1.585560e+02 2.121690e+02
250 1.638610e+02 1.918900e+01
251 1.638610e+02 3.756800e+01
252 1.638610e+02 5.594700e+01
253 1.638610e+02 1.294630e+02
254 1.638610e+02 1.846000e+02
255 1.691670e+02 1.000000e+01
256 1.691670e+02 4.675800e+01
257 1.691670e+02 6.513700e+01
258 1.691670e+02 8.351600e+01
259 1.691670e+02 1.018950e+02
260 1.691670e+02 1.202740e+02
261 1.691670e+02 1.570320e+02
262 1.691670e+02 1.754110e+02
263 1.691670e+02 2.121690e+02
264 1.744720e+02 1.918900e+01
265 1.744720e+02 7.432600e+01
266 1.744720e+02 1.110840e+02
267 1.744720e+02 1.478420e+02
268 1.744720e+02 1.846000e+02
269 1.744720e+02 2.029790e+02
270 1.797780e+02 1.000000e+01
271 1.797780e+02 2.837900e+01
272 1.797780e+02 6.513700e+01
273 1.797780e+02 8.351600e+01
274 1.797780e+02 1.018950e+02
275 1.797780e+02 1.386530e+02
276 1.797780e+02 1.570320e+02
277 1.797780e+02 1.754110e+02
278 1.797780e+02 1.937900e+02
279 1.797780e+02 2.121690e+02
280 1.850830e+02 1.918900e+01
281 1.850830e+02 5.594700e+01
282 1.850830e+02 7.432600e+01
283 1.850830e+02 9.270500e+01
284 1.850830e+02 1.110840e+02
285 1.850830e+02 1.294630e+02
286 1.850830e+02 1.478420e+02
287 1.850830e+02 1.662210e+02
288 1.850830e+02 1.846000e+02
289 1.850830e+02 2.029790e+02
290 1.903890e+02 1.000000e+01
291 1.903890e+02 4.675800e+01
292 1.903890e+02 6.513700e+01
293 1.903890e+02 8.351600e+01
294 1.903890e+02 1.018950e+02
295 1.903890e+02 1.202740e+02
296 1.903890e+02 1.386530e+02
297 1.903890e+02 1.570320e+02
298 1.903890e+02 1.754110e+02
299 1.903890e+02 1.937900e+02
300 1.903890e+02 2.121690e+02
EOF
